# SCIP version 3.0.0

sepa/base/enable = TRUE

sepa/base/genobjconvex = FALSE

sepa/base/objconvex = 0.0

sepa/base/enableobj = TRUE

sepa/base/enableobjround = TRUE

sepa/base/enableppobjconss = TRUE

lp/solvefreq = 0

lp/iterlim = -1

lp/rootiterlim = -1

conflict/enable = FALSE

detectors/random/enabled = FALSE

separating/poolfreq = -1
